/*********************************************
 * OPL 12.6.0.0 Data
 * Author: Adrian Rodriguez Bazaga, Pau Rodriguez Esmerats
 * Creation Date: 06/12/2017 at 23:03:01
 *********************************************/

nNurses=189;
maxConsec=2;
maxPresence=7;
maxHours=5;
minHours=1;
hours=24;
demand= [35 30 43 51 30 43 51 32 29 18 3 6 3 9 5 7 3 7 2 3 31 55 26 45  ];
